db/data/1251782292439029192359414158234411022.z3.out
-------------------
2500.178351372
